min: c;

c = 3.22313811146948 * u1_t7_h4 + 3.15095385321153 * u1_t7_h5 + 4.09587938346006 * u1_t5_h6 + 4.09587938346006 * u1_t7_h6 + 4.37609117430371 * u1_t5_h7 + 4.37609117430371 * u1_t7_h7 + 4.37609117430371 * u1_t9_h7 + 4.95914953990726 * u1_t5_h8 + 4.95914953990726 * u1_t7_h8 + 4.95914953990726 * u1_t9_h8 + 4.95914953990726 * u1_t10_h8 + 4.58348917898439 * u1_t5_h9 + 4.58348917898439 * u1_t7_h9 + 4.58348917898439 * u1_t9_h9 + 4.58348917898439 * u1_t10_h9 + 5.79346166764669 * u1_t5_h10 + 5.79346166764669 * u1_t7_h10 + 5.79346166764669 * u1_t9_h10 + 5.79346166764669 * u1_t10_h10 + 3.69434948859594 * u1_t5_h11 + 3.69434948859594 * u1_t9_h11 + 3.69434948859594 * u1_t10_h11 + 6.14565914943632 * u1_t4_h12 + 6.14565914943632 * u1_t5_h12 + 6.14565914943632 * u1_t8_h12 + 6.14565914943632 * u1_t9_h12 + 6.14565914943632 * u1_t10_h12 + 4.49925183728938 * u1_t4_h13 + 4.49925183728938 * u1_t8_h13 + 4.49925183728938 * u1_t9_h13 + 4.49925183728938 * u1_t10_h13 + 5.09729702322129 * u1_t4_h14 + 5.09729702322129 * u1_t8_h14 + 5.09729702322129 * u1_t9_h14 + 5.09729702322129 * u1_t10_h14 + 6.3499732614184 * u1_t4_h15 + 6.3499732614184 * u1_t8_h15 + 5.6820029228977 * u1_t4_h16 + 5.6820029228977 * u1_t8_h16 + 5.92594576570882 * u1_t4_h17 + 5.92594576570882 * u1_t8_h17 + 6.35569015297611 * u1_t2_h18 + 6.35569015297611 * u1_t4_h18 + 6.35569015297611 * u1_t6_h18 + 6.35569015297611 * u1_t8_h18 + 5.47307725077287 * u1_t2_h19 + 5.47307725077287 * u1_t3_h19 + 5.47307725077287 * u1_t4_h19 + 5.47307725077287 * u1_t6_h19 + 5.52474535299687 * u1_t1_h20 + 5.52474535299687 * u1_t2_h20 + 5.52474535299687 * u1_t3_h20 + 5.52474535299687 * u1_t4_h20 + 5.52474535299687 * u1_t6_h20 + 5.63233579101071 * u1_t1_h21 + 5.63233579101071 * u1_t2_h21 + 5.63233579101071 * u1_t3_h21 + 5.16627735041401 * u1_t1_h22 + 5.16627735041401 * u1_t2_h22 + 5.72798505019054 * u1_t1_h23 + 5.72798505019054 * u1_t2_h23;
0 <= u1_t1_h20 <= 1;
0 <= u1_t1_h21 <= 1;
0 <= u1_t1_h22 <= 1;
0 <= u1_t1_h23 <= 1;
u1_t1_h20 + u1_t1_h21 + u1_t1_h22 + u1_t1_h23 = 1;
0 <= u1_t2_h18 <= 1;
0 <= u1_t2_h19 <= 1;
0 <= u1_t2_h20 <= 1;
0 <= u1_t2_h21 <= 1;
0 <= u1_t2_h22 <= 1;
0 <= u1_t2_h23 <= 1;
u1_t2_h18 + u1_t2_h19 + u1_t2_h20 + u1_t2_h21 + u1_t2_h22 + u1_t2_h23 = 2;
0 <= u1_t3_h19 <= 1;
0 <= u1_t3_h20 <= 1;
0 <= u1_t3_h21 <= 1;
u1_t3_h19 + u1_t3_h20 + u1_t3_h21 = 1;
0 <= u1_t4_h12 <= 1;
0 <= u1_t4_h13 <= 1;
0 <= u1_t4_h14 <= 1;
0 <= u1_t4_h15 <= 1;
0 <= u1_t4_h16 <= 1;
0 <= u1_t4_h17 <= 1;
0 <= u1_t4_h18 <= 1;
0 <= u1_t4_h19 <= 1;
0 <= u1_t4_h20 <= 1;
u1_t4_h12 + u1_t4_h13 + u1_t4_h14 + u1_t4_h15 + u1_t4_h16 + u1_t4_h17 + u1_t4_h18 + u1_t4_h19 + u1_t4_h20 = 3;
0 <= u1_t5_h6 <= 1;
0 <= u1_t5_h7 <= 1;
0 <= u1_t5_h8 <= 1;
0 <= u1_t5_h9 <= 1;
0 <= u1_t5_h10 <= 1;
0 <= u1_t5_h11 <= 1;
0 <= u1_t5_h12 <= 1;
u1_t5_h6 + u1_t5_h7 + u1_t5_h8 + u1_t5_h9 + u1_t5_h10 + u1_t5_h11 + u1_t5_h12 = 3;
0 <= u1_t6_h18 <= 1;
0 <= u1_t6_h19 <= 1;
0 <= u1_t6_h20 <= 1;
u1_t6_h18 + u1_t6_h19 + u1_t6_h20 = 2;
0 <= u1_t7_h4 <= 1;
0 <= u1_t7_h5 <= 1;
0 <= u1_t7_h6 <= 1;
0 <= u1_t7_h7 <= 1;
0 <= u1_t7_h8 <= 1;
0 <= u1_t7_h9 <= 1;
0 <= u1_t7_h10 <= 1;
u1_t7_h4 + u1_t7_h5 + u1_t7_h6 + u1_t7_h7 + u1_t7_h8 + u1_t7_h9 + u1_t7_h10 = 2;
0 <= u1_t8_h12 <= 1;
0 <= u1_t8_h13 <= 1;
0 <= u1_t8_h14 <= 1;
0 <= u1_t8_h15 <= 1;
0 <= u1_t8_h16 <= 1;
0 <= u1_t8_h17 <= 1;
0 <= u1_t8_h18 <= 1;
u1_t8_h12 + u1_t8_h13 + u1_t8_h14 + u1_t8_h15 + u1_t8_h16 + u1_t8_h17 + u1_t8_h18 = 2;
0 <= u1_t9_h7 <= 1;
0 <= u1_t9_h8 <= 1;
0 <= u1_t9_h9 <= 1;
0 <= u1_t9_h10 <= 1;
0 <= u1_t9_h11 <= 1;
0 <= u1_t9_h12 <= 1;
0 <= u1_t9_h13 <= 1;
0 <= u1_t9_h14 <= 1;
u1_t9_h7 + u1_t9_h8 + u1_t9_h9 + u1_t9_h10 + u1_t9_h11 + u1_t9_h12 + u1_t9_h13 + u1_t9_h14 = 3;
0 <= u1_t10_h8 <= 1;
0 <= u1_t10_h9 <= 1;
0 <= u1_t10_h10 <= 1;
0 <= u1_t10_h11 <= 1;
0 <= u1_t10_h12 <= 1;
0 <= u1_t10_h13 <= 1;
0 <= u1_t10_h14 <= 1;
u1_t10_h8 + u1_t10_h9 + u1_t10_h10 + u1_t10_h11 + u1_t10_h12 + u1_t10_h13 + u1_t10_h14 = 3;
